n = 9;
happiness = [|0, 94, -35, 95, -51, -99, 90, -16, 0,
              |-51, 0, 92, 31, -81, -96, -73, -89, 0,
              |26, 39, 0, -75, -82, 2, 42, 38, 0,
              |100, -44, -65, 0, 51, 24, 21, 55, 0,
              |-65, 42, 36, -18, 0, -18, -22, 2, 0,
              |-61, 87, 40, 63, -15, 0, 41, 30, 0,
              |8, -92, -48, 97, -66, 91, 0, -9, 0,
              |17, 97, -44, -92, 92, -25, 18, 0, 0,
              |0, 0, 0, 0, 0, 0, 0, 0, 0|];